20J6M/DAT/20J6MUNL-4.dat
20 6
9.991 9.991
1.9226 1.9226
13.3793 13.3793
8.1009 8.1009
20.6466 20.6466
38.9452 38.9452
29.5874 29.5874
22.3209 22.3209
29.6859 29.6859
10.1725 10.1725
45.7765 45.7765
9.3807 9.3807
9.4801 9.4801
31.0813 31.0813
26.1971 26.1971
34.8617 34.8617
5.4805 5.4805
22.6983 22.6983
23.9227 23.9227
26.6952 26.6952
420.3264