20J6M/SOL/20J6MUNL-4.sol
solution status: optimal solution found
objective value:                              70.0544
x#1#3                                               1 	(obj:0)
x#2#4                                               1 	(obj:0)
x#3#4                                               1 	(obj:0)
x#4#4                                               1 	(obj:0)
x#5#3                                               1 	(obj:0)
x#6#2                                               1 	(obj:0)
x#7#5                                               1 	(obj:0)
x#8#3                                               1 	(obj:0)
x#9#5                               0.598556890645053 	(obj:0)
x#9#6                               0.401443109354947 	(obj:0)
x#10#3                                              1 	(obj:0)
x#11#1                              0.768794031872249 	(obj:0)
x#11#2                              0.191805839240658 	(obj:0)
x#11#3                             0.0315205400150731 	(obj:0)
x#11#6                            0.00787958887201905 	(obj:0)
x#12#4                                              1 	(obj:0)
x#13#4                                              1 	(obj:0)
x#14#6                                              1 	(obj:0)
x#15#2                              0.852346252066069 	(obj:0)
x#15#4                              0.147653747933932 	(obj:0)
x#16#1                                              1 	(obj:0)
x#17#3                                              1 	(obj:0)
x#18#5                                              1 	(obj:0)
x#19#4                                              1 	(obj:0)
x#20#6                                              1 	(obj:0)
z                                             70.0544 	(obj:1)
